N = 9;
H = 5;
T = 2;

avail = array3d(1..N, 1..H, 1..T, [4, 1, 2, 3, 10, 5, 6, 3, 3, 10, 3, 0, 9, 2, 2, 0, 0, 5, 10, 2, 0, 7, 10, 5, 9, 3, 4, 4, 0, 3, 5, 1, 5, 3, 2, 8, 8, 0, 9, 7, 8, 3, 10, 5, 5, 7, 7, 9, 8, 3, 3, 0, 2, 1, 6, 3, 10, 4, 6, 10, 9, 7, 6, 4, 6, 8, 7, 1, 0, 8, 9, 3, 2, 2, 10, 8, 6, 3, 2, 6, 4, 4, 2, 6, 7, 0, 7, 6, 4, 5]);

r = array2d(1..H, 1..T, [3, 1, 2, 2, 2, 3, 3, 4, 3, 1]);
